min: 1 x1 + 1 x2 + 1 x3 + 1 x4 + 1 x5 + 1 x6 + 1 x7 + 1 x8 + 1 x9 + 1 x10 + 1 x11 + 1 x12 + 1 x13 + 1 x14 + 1 x15 + 1 x16 + 1 x17 + 1 x18 + 1 x19 + 1 x20;

r1: x15 + x2 + x13 + x1 + x18 + x14 >= 1;
r2: x4 >= 1;
r3: x1 + x9 + x2 + x19 >= 1;
r4: x13 + x19 >= 1;
r5: x2 + x19 + x9 + x16 + x13 + x12 + x7 >= 1;
r6: x9 >= 1;
r7: x10 + x6 + x7 + x1 + x16 + x11 + x3 >= 1;
r8: x17 + x11 + x5 + x19 + x13 + x10 + x1 >= 1;
r9: x14 + x12 + x6 + x2 >= 1;
r10: x8 + x14 + x1 >= 1;
r11: x17 + x2 >= 1;
r12: x10 + x5 + x11 + x2 + x4 + x3 + x7 >= 1;
r13: x2 + x8 + x14 + x7 + x5 + x12 + x3 + x17 >= 1;
r14: x6 + x3 + x14 >= 1;
r15: x5 + x9 + x13 >= 1;
r16: x12 + x19 + x18 >= 1;
r17: x1 + x13 + x10 + x8 + x14 + x9 + x6 >= 1;
r18: x9 + x13 + x12 + x16 + x1 + x20 + x7 + x19 >= 1;
r19: x3 + x7 + x13 + x10 + x11 >= 1;
r20: x12 + x1 + x5 + x14 >= 1;
r21: x14 + x6 + x4 + x11 + x12 + x1 >= 1;
r22: x13 + x6 + x19 + x20 + x16 + x11 + x18 >= 1;
r23: x14 + x15 + x6 + x17 + x3 >= 1;
r24: x3 + x15 + x14 + x16 + x2 >= 1;
r25: x15 + x9 + x13 + x7 + x20 >= 1;
r26: x2 + x10 + x1 + x16 + x8 + x19 + x4 >= 1;
r27: x9 + x5 >= 1;
r28: x2 + x3 + x18 + x4 + x5 + x9 >= 1;
r29: x7 + x17 + x5 >= 1;
r30: x10 + x3 + x13 + x5 + x1 + x11 >= 1;
r31: x18 + x10 + x20 + x4 + x2 + x19 >= 1;
r32: x3 + x15 + x5 >= 1;
r33: x12 + x10 + x19 + x18 + x20 >= 1;
r34: x18 >= 1;
r35: x4 + x11 >= 1;
r36: x12 >= 1;
r37: x16 + x8 + x10 + x20 + x18 + x17 >= 1;
r38: x19 >= 1;
r39: x5 + x4 >= 1;
r40: x5 + x2 + x19 + x12 + x20 + x14 + x4 >= 1;
r41: x6 + x7 + x11 >= 1;
r42: x9 + x18 >= 1;
r43: x10 + x1 + x6 + x20 + x12 >= 1;
r44: x5 + x2 + x3 + x1 + x16 + x15 + x11 >= 1;
r45: x1 + x16 + x19 >= 1;
r46: x18 + x4 + x9 + x17 + x8 + x20 >= 1;
r47: x2 + x1 + x13 + x18 >= 1;
r48: x20 + x3 + x19 + x4 >= 1;
r49: x10 >= 1;
r50: x19 + x15 + x9 + x12 >= 1;
r51: x2 + x15 >= 1;
r52: x17 >= 1;
r53: x3 >= 1;
r54: x12 >= 1;
r55: x6 + x17 + x7 + x5 + x19 + x10 + x18 + x1 >= 1;
r56: x13 + x20 + x19 + x18 + x15 >= 1;
r57: x7 + x8 + x13 + x19 + x6 >= 1;
r58: x16 + x1 >= 1;
r59: x12 + x15 + x3 + x5 + x1 + x2 >= 1;
r60: x10 + x13 + x7 >= 1;

bin x1, x2, x3, x4, x5, x6, x7, x8, x9, x10, x11, x12, x13, x14, x15, x16, x17, x18, x19, x20;
